Problem:    
Rows:       58
Columns:    64
Non-zeros:  154
Status:     OPTIMAL
Objective:  obj = 3.5 (MAXimum)

   No.   Row name   St   Activity     Lower bound   Upper bound    Marginal
------ ------------ -- ------------- ------------- ------------- -------------
     1 r.4          NU             0                           0         < eps
     2 r.5          NU             0                           0          0.25 
     3 r.6          NU             0                           0          0.75 
     4 r.7          NU             0                           0          0.25 
     5 r.8          NS             0             0             =          0.75 
     6 r.9          NU             0                           0         < eps
     7 r.10         B              0                           0 
     8 r.11         NU             0                           0         < eps
     9 r.12         NU             0                           0         < eps
    10 r.13         NU             0                           0          0.25 
    11 r.14         NU             0                           0         < eps
    12 r.15         NU             0                           0         < eps
    13 r.16         NU             0                           0         < eps
    14 r.17         NS             0             0             =          0.25 
    15 r.18         B             -1                           0 
    16 r.19         B             -3                           0 
    17 r.20         NU             0                           0          0.75 
    18 r.21         NU             0                           0         < eps
    19 r.22         B             -4                           0 
    20 r.23         B             -3                           0 
    21 r.24         B              0                           0 
    22 r.25         NU             0                           0         < eps
    23 r.26         NU             0                           0          0.75 
    24 r.27         NU             0                           0          0.25 
    25 r.28         B              0                           0 
    26 r.29         NU             0                           0         < eps
    27 r.30         NU             0                           0          0.75 
    28 r.31         NU             0                           0         < eps
    29 r.32         B             -1                           0 
    30 r.33         B             -2                           0 
    31 r.34         NU             0                           0         < eps
    32 r.35         B             -1                           0 
    33 r.36         NU             0                           0         < eps
    34 r.37         NU             0                           0         < eps
    35 r.38         NU             0                           0         < eps
    36 r.39         B             -1                           0 
    37 r.40         B             -4                           0 
    38 r.41         B             -2                           0 
    39 r.42         NU             0                           0         < eps
    40 r.43         NU             0                           0          0.25 
    41 r.44         B              0                           0 
    42 r.45         B             -1                           0 
    43 r.46         NS             1             1             =          0.75 
    44 r.47         NS             1             1             =         < eps
    45 r.48         NS             1             1             =         < eps
    46 r.49         NS             1             1             =          0.75 
    47 r.50         NS             1             1             =          0.25 
    48 r.51         NS             1             1             =         < eps
    49 r.52         NS             1             1             =         < eps
    50 r.53         NS             1             1             =         < eps
    51 r.54         NS             1             1             =         < eps
    52 r.55         NS             1             1             =          0.75 
    53 r.56         NS             1             1             =          0.75 
    54 r.57         NS             1             1             =          0.25 
    55 r.58         NS             1             1             =         < eps
    56 r.59         NS             1             1             =         < eps
    57 r.60         NS             1             1             =         < eps
    58 r.61         NS             1             1             =         < eps

   No. Column name  St   Activity     Lower bound   Upper bound    Marginal
------ ------------ -- ------------- ------------- ------------- -------------
     1 V(0,1)       B              4                             
     2 V(0,2)       B              2                             
     3 V(1203,1)    B              1                             
     4 F(1203,1)    NL             0             0                       -0.25 
     5 F(1203,2)    B              1             0               
     6 V(8,1)       B              1                             
     7 V(1203,2)    B              2                             
     8 V(8,2)       B              1                             
     9 V(1201,1)    B              3                             
    10 F(1201,1)    B              1             0               
    11 F(1201,2)    NL             0             0                        -0.5 
    12 V(1202,1)    B              2                             
    13 V(1201,2)    B              2                             
    14 V(1202,2)    B              2                             
    15 V(1,1)       B              0                             
    16 V(1,2)       B              2                             
    17 F(1,1)       B              1             0               
    18 F(1,2)       B              0             0               
    19 V(3,2)       B              2                             
    20 V(1302,1)    NF             0                                     < eps
    21 F(1302,1)    NL             0             0                       < eps
    22 F(1302,2)    B              1             0               
    23 V(1303,1)    NF             0                                     < eps
    24 V(1302,2)    B              1                             
    25 V(1303,2)    B              0                             
    26 F(8,1)       NL             0             0                       -0.25 
    27 F(8,2)       B              1             0               
    28 V(2,1)       B              1                             
    29 V(2,2)       B              0                             
    30 V(1101,1)    B              1                             
    31 F(1101,1)    B              1             0               
    32 F(1101,2)    NL             0             0                       < eps
    33 V(1102,1)    B              0                             
    34 V(1101,2)    B              0                             
    35 V(1102,2)    B              0                             
    36 F(2,1)       B              0             0               
    37 F(2,2)       B              1             0               
    38 V(1104,1)    NF             0                                     < eps
    39 F(1104,1)    NL             0             0                       < eps
    40 F(1104,2)    B              1             0               
    41 V(3,1)       B              1                             
    42 V(1104,2)    NF             0                                     < eps
    43 F(3,1)       B              1             0               
    44 F(3,2)       NL             0             0                       -0.75 
    45 V(1103,1)    B              0                             
    46 F(1103,1)    NL             0             0                       < eps
    47 F(1103,2)    B              1             0               
    48 V(1103,2)    NF             0                                     < eps
    49 V(1301,1)    NF             0                                     < eps
    50 V(1301,2)    B              2                             
    51 F(0,1)       B              1             0               
    52 F(0,2)       NL             0             0                        -0.5 
    53 F(1301,1)    NL             0             0                       < eps
    54 F(1301,2)    B              1             0               
    55 F(1202,1)    B              1             0               
    56 F(1202,2)    NL             0             0                        -0.5 
    57 V(1304,1)    NF             0                                     < eps
    58 F(1304,1)    NL             0             0                       < eps
    59 F(1304,2)    B              1             0               
    60 V(1304,2)    NF             0                                     < eps
    61 F(1102,1)    B              0             0               
    62 F(1102,2)    B              1             0               
    63 F(1303,1)    NL             0             0                       < eps
    64 F(1303,2)    B              1             0               

Karush-Kuhn-Tucker optimality conditions:

KKT.PE: max.abs.err = 0.00e+00 on row 0
        max.rel.err = 0.00e+00 on row 0
        High quality

KKT.PB: max.abs.err = 0.00e+00 on row 0
        max.rel.err = 0.00e+00 on row 0
        High quality

KKT.DE: max.abs.err = 0.00e+00 on column 0
        max.rel.err = 0.00e+00 on column 0
        High quality

KKT.DB: max.abs.err = 0.00e+00 on row 0
        max.rel.err = 0.00e+00 on row 0
        High quality

End of output
